c defined variables: 13 25 29 33 37 41 45 49 53 57 61 65 69 73 77 81 85 89 93 97 101 105 109 113 126 136 140 144 148 152 156 160 164 168 172 176 180 184 188 192 196 200 204 208 212 216 220 224 234 235 237 238 239 241 242 244 245 246 247 249 250 252 253 254 256 257 259 260 261 262 263 265 266 268 269 270 272 273 275 276 277 278 280 281 283 284 285 287 288 290 291 292 293 294 295 297 298 300 301 302 304 305 307 308 309 310 312 313 315 316 317 319 320 322 323 324 325 326 328 329 331 332 333 336 337 339 341 342 344 345 346 348 349 351 352 353 354 355 356 357 358 359 360 361 362 363 364 365 366 367 368 369 370 371 372 373 374 375 376 377 378 379 380 381 382 383 384 385 386 387 388 389 390 391 392 393 394 395 396 397 398 399 400 401 402 403 404 405 406 407 408 409 410 411 412 413 414 415 416 417 418 419 420 421 422 423 424 425 426 427 428 429 430 431 432 434 435 436 437 438 439 440 441 442 443 444 445 446 447 448 449 450 451 452 453 455 
p cnf 1643 2101
a 230 68 72 56 64 48 60 40 52 32 44 299 303 267 271 274 279 282 286 289 296 340 335 327 321 433 330 311 306 318 314 20 36 4 8 24 16 1 28 12 350 5 343 347 21 2 9 17 191 183 167 171 179 175 151 155 159 163 258 264 236 240 233 251 255 243 248 199 203 187 195 215 219 211 207 223 227 104 96 100 92 88 84 76 80 112 108 122 135 129 132 116 139 125 119 147 143 0
e 3 6 7 10 11 14 15 18 19 22 23 26 27 30 31 34 35 38 39 42 43 46 47 50 51 54 55 58 59 62 63 66 67 70 71 74 75 78 79 82 83 86 87 90 91 94 95 98 99 102 103 106 107 110 111 114 115 117 118 120 121 123 124 127 128 130 131 133 134 137 138 141 142 145 146 149 150 153 154 157 158 161 162 165 166 169 170 173 174 177 178 181 182 185 186 189 190 193 194 197 198 201 202 205 206 209 210 213 214 217 218 221 222 225 226 228 229 231 232 338 454 13 25 29 33 37 41 45 49 53 57 61 65 69 73 77 81 85 89 93 97 101 105 109 113 126 136 140 144 148 152 156 160 164 168 172 176 180 184 188 192 196 200 204 208 212 216 220 224 234 235 237 238 239 241 242 244 245 246 247 249 250 252 253 254 256 257 259 260 261 262 263 265 266 268 269 270 272 273 275 276 277 278 280 281 283 284 285 287 288 290 291 292 293 294 295 297 298 300 301 302 304 305 307 308 309 310 312 313 315 316 317 319 320 322 323 324 325 326 328 329 331 332 333 336 337 339 341 342 344 345 346 348 349 351 352 353 354 355 356 357 358 359 360 361 362 363 364 365 366 367 368 369 370 371 372 373 374 375 376 377 378 379 380 381 382 383 384 385 386 387 388 389 390 391 392 393 394 395 396 397 398 399 400 401 402 403 404 405 406 407 408 409 410 411 412 413 414 415 416 417 418 419 420 421 422 423 424 425 426 427 428 429 430 431 432 434 435 436 437 438 439 440 441 442 443 444 445 446 447 448 449 450 451 452 453 455 1422 1423 1424 1425 1426 1427 1428 1429 1430 1431 1432 1433 1434 1435 1436 1437 1438 1439 1440 1441 1442 1443 1444 1445 1446 1447 1448 1449 1450 1451 1452 1453 1454 1455 1456 1457 1458 1459 1460 1461 1462 1463 1464 1465 1466 1467 1468 1469 1470 1471 1472 1473 1474 1475 1476 1477 1478 1479 1480 1481 1482 1483 1484 1485 1486 1487 1488 1489 1490 1491 1492 1493 1494 1495 1496 1497 1498 1499 1500 1501 1502 1503 1504 1505 1506 1507 1508 1509 1510 1511 1512 1513 1514 1515 1516 1517 1518 1519 1520 1521 1522 1523 1524 1525 1526 1527 1528 1529 1530 1531 1532 1533 1534 1535 1536 1537 1538 1539 1540 1541 1542 1543 1544 1545 1546 1547 1548 1549 1550 1551 1552 1553 1554 1555 1556 1557 1558 1559 1560 1561 1562 1563 1564 1565 1566 1567 1568 1569 1570 1571 1572 1573 1574 1575 1576 1577 1578 1579 1580 1581 1582 1583 1584 1585 1586 1587 1588 1589 1590 1591 1592 1593 1594 1595 1596 1597 1598 1599 1600 1601 1602 1603 1604 1605 1606 1607 1608 1609 1610 1611 1612 1613 1614 1615 1616 1617 1618 1619 1620 1621 1622 1623 1624 1625 1626 1627 1628 1629 1630 1631 1632 1633 1634 1635 1636 1637 1638 1639 1640 1641 1642 1643 0
d 334 9 433 227 2 230 0
1423 -13 0
-1423 13 0
1424 -25 0
-1424 25 0
1425 -29 0
-1425 29 0
1426 -33 0
-1426 33 0
1427 -37 0
-1427 37 0
1428 -41 0
-1428 41 0
1429 -45 0
-1429 45 0
1430 -49 0
-1430 49 0
1431 -53 0
-1431 53 0
1432 -57 0
-1432 57 0
1433 -61 0
-1433 61 0
1434 -65 0
-1434 65 0
1435 -69 0
-1435 69 0
1436 -73 0
-1436 73 0
1437 -77 0
-1437 77 0
1438 -81 0
-1438 81 0
1439 -85 0
-1439 85 0
1440 -89 0
-1440 89 0
1441 -93 0
-1441 93 0
1442 -97 0
-1442 97 0
1443 -101 0
-1443 101 0
1444 -105 0
-1444 105 0
1445 -109 0
-1445 109 0
1446 -113 0
-1446 113 0
1447 -126 0
-1447 126 0
1448 -136 0
-1448 136 0
1449 -140 0
-1449 140 0
1450 -144 0
-1450 144 0
1451 -148 0
-1451 148 0
1452 -152 0
-1452 152 0
1453 -156 0
-1453 156 0
1430 -160 0
-1430 160 0
1454 -164 0
-1454 164 0
1455 -168 0
-1455 168 0
1456 -172 0
-1456 172 0
1457 -176 0
-1457 176 0
1458 -180 0
-1458 180 0
1459 -184 0
-1459 184 0
1460 -188 0
-1460 188 0
1461 -192 0
-1461 192 0
1462 -196 0
-1462 196 0
1463 -200 0
-1463 200 0
1464 -204 0
-1464 204 0
1442 -208 0
-1442 208 0
1465 -212 0
-1465 212 0
1466 -216 0
-1466 216 0
1467 -220 0
-1467 220 0
1468 -224 0
-1468 224 0
1469 -234 0
-1469 234 0
1470 -235 0
-1470 235 0
1471 -237 0
-1471 237 0
1472 -238 0
-1472 238 0
-1473 -239 0
1473 239 0
1474 -241 0
-1474 241 0
1475 -242 0
-1475 242 0
1476 -244 0
-1476 244 0
1477 -245 0
-1477 245 0
-1478 -246 0
1478 246 0
-1479 -247 0
1479 247 0
1480 -249 0
-1480 249 0
1481 -250 0
-1481 250 0
1482 -252 0
-1482 252 0
1483 -253 0
-1483 253 0
-1484 -254 0
1484 254 0
1485 -256 0
-1485 256 0
1486 -257 0
-1486 257 0
1487 -259 0
-1487 259 0
1488 -260 0
-1488 260 0
-1489 -261 0
1489 261 0
-1490 -262 0
1490 262 0
-1492 -263 0
1492 263 0
1493 -265 0
-1493 265 0
1494 -266 0
-1494 266 0
1495 -268 0
-1495 268 0
1496 -269 0
-1496 269 0
-1497 -270 0
1497 270 0
1498 -272 0
-1498 272 0
1499 -273 0
-1499 273 0
1500 -275 0
-1500 275 0
1501 -276 0
-1501 276 0
-1502 -277 0
1502 277 0
-1503 -278 0
1503 278 0
1504 -280 0
-1504 280 0
1505 -281 0
-1505 281 0
1506 -283 0
-1506 283 0
1507 -284 0
-1507 284 0
-1508 -285 0
1508 285 0
1509 -287 0
-1509 287 0
1510 -288 0
-1510 288 0
1511 -290 0
-1511 290 0
1512 -291 0
-1512 291 0
-1513 -292 0
1513 292 0
-1514 -293 0
1514 293 0
-1515 -294 0
1515 294 0
-1516 -295 0
1516 295 0
1517 -297 0
-1517 297 0
1518 -298 0
-1518 298 0
1519 -300 0
-1519 300 0
1520 -301 0
-1520 301 0
-1521 -302 0
1521 302 0
1522 -304 0
-1522 304 0
1523 -305 0
-1523 305 0
1524 -307 0
-1524 307 0
1525 -308 0
-1525 308 0
-1526 -309 0
1526 309 0
-1527 -310 0
1527 310 0
1528 -312 0
-1528 312 0
1529 -313 0
-1529 313 0
1530 -315 0
-1530 315 0
1531 -316 0
-1531 316 0
-1532 -317 0
1532 317 0
1533 -319 0
-1533 319 0
1534 -320 0
-1534 320 0
1535 -322 0
-1535 322 0
1536 -323 0
-1536 323 0
-1537 -324 0
1537 324 0
-1538 -325 0
1538 325 0
-1539 -326 0
1539 326 0
1540 -328 0
-1540 328 0
1541 -329 0
-1541 329 0
1542 -331 0
-1542 331 0
1543 -332 0
-1543 332 0
-1544 -333 0
1544 333 0
1545 -336 0
-1545 336 0
1546 -337 0
-1546 337 0
-1547 -339 0
1547 339 0
1548 -341 0
-1548 341 0
1549 -342 0
-1549 342 0
1550 -344 0
-1550 344 0
1551 -345 0
-1551 345 0
1554 -346 0
-1554 346 0
1555 -348 0
-1555 348 0
1556 -349 0
-1556 349 0
1557 -351 0
-1557 351 0
1558 -352 0
-1558 352 0
-1559 -353 0
1559 353 0
-1560 -354 0
1560 354 0
-1561 -355 0
1561 355 0
-1562 -356 0
1562 356 0
-1563 -357 0
1563 357 0
1564 -358 0
-1564 358 0
1565 -359 0
-1565 359 0
1566 -360 0
-1566 360 0
1567 -361 0
-1567 361 0
-1568 -362 0
1568 362 0
1569 -363 0
-1569 363 0
1570 -364 0
-1570 364 0
1571 -365 0
-1571 365 0
1572 -366 0
-1572 366 0
-1573 -367 0
1573 367 0
-1574 -368 0
1574 368 0
1575 -369 0
-1575 369 0
1576 -370 0
-1576 370 0
1577 -371 0
-1577 371 0
1578 -372 0
-1578 372 0
-1579 -373 0
1579 373 0
1580 -374 0
-1580 374 0
1581 -375 0
-1581 375 0
1582 -376 0
-1582 376 0
1583 -377 0
-1583 377 0
-1584 -378 0
1584 378 0
-1585 -379 0
1585 379 0
-1586 -380 0
1586 380 0
1587 -381 0
-1587 381 0
1588 -382 0
-1588 382 0
1589 -383 0
-1589 383 0
1590 -384 0
-1590 384 0
-1591 -385 0
1591 385 0
1592 -386 0
-1592 386 0
1593 -387 0
-1593 387 0
1594 -388 0
-1594 388 0
1595 -389 0
-1595 389 0
-1596 -390 0
1596 390 0
-1597 -391 0
1597 391 0
1598 -392 0
-1598 392 0
1599 -393 0
-1599 393 0
1600 -394 0
-1600 394 0
1601 -395 0
-1601 395 0
-1602 -396 0
1602 396 0
1603 -397 0
-1603 397 0
1604 -398 0
-1604 398 0
1605 -399 0
-1605 399 0
1606 -400 0
-1606 400 0
-1607 -401 0
1607 401 0
-1608 -402 0
1608 402 0
-1609 -403 0
1609 403 0
-1610 -404 0
1610 404 0
1517 -405 0
-1517 405 0
1611 -406 0
-1611 406 0
1519 -407 0
-1519 407 0
1612 -408 0
-1612 408 0
-1613 -409 0
1613 409 0
1522 -410 0
-1522 410 0
1614 -411 0
-1614 411 0
1524 -412 0
-1524 412 0
1615 -413 0
-1615 413 0
-1616 -414 0
1616 414 0
-1617 -415 0
1617 415 0
1528 -416 0
-1528 416 0
1618 -417 0
-1618 417 0
1530 -418 0
-1530 418 0
1619 -419 0
-1619 419 0
-1620 -420 0
1620 420 0
1533 -421 0
-1533 421 0
1621 -422 0
-1621 422 0
1535 -423 0
-1535 423 0
1622 -424 0
-1622 424 0
-1623 -425 0
1623 425 0
-1624 -426 0
1624 426 0
-1625 -427 0
1625 427 0
1540 -428 0
-1540 428 0
1626 -429 0
-1626 429 0
1542 -430 0
-1542 430 0
1627 -431 0
-1627 431 0
-1628 -432 0
1628 432 0
1629 -434 0
-1629 434 0
1630 -435 0
-1630 435 0
1545 -436 0
-1545 436 0
1631 -437 0
-1631 437 0
-1632 -438 0
1632 438 0
-1633 -439 0
1633 439 0
1548 -440 0
-1548 440 0
1634 -441 0
-1634 441 0
1550 -442 0
-1550 442 0
1635 -443 0
-1635 443 0
-1636 -444 0
1636 444 0
1555 -445 0
-1555 445 0
1637 -446 0
-1637 446 0
1557 -447 0
-1557 447 0
1638 -448 0
-1638 448 0
-1639 -449 0
1639 449 0
-1640 -450 0
1640 450 0
-1641 -451 0
1641 451 0
-1642 -452 0
1642 452 0
-1643 -453 0
1643 453 0
1422 -455 0
-1422 455 0
455 0
-455 232 454 0
-232 229 -231 0
-229 226 -228 0
-226 222 -225 0
-222 218 -221 0
-218 214 -217 0
-214 210 -213 0
-210 206 -209 0
-206 202 -205 0
-202 198 -201 0
-198 194 -197 0
-194 190 -193 0
-190 186 -189 0
-186 182 -185 0
-182 178 -181 0
-178 174 -177 0
-174 170 -173 0
-170 166 -169 0
-166 162 -165 0
-162 158 -161 0
-158 154 -157 0
-154 150 -153 0
-150 146 -149 0
-146 142 -145 0
-142 138 -141 0
-138 134 -137 0
-134 131 -133 0
-131 128 -130 0
-128 124 -127 0
-124 121 -123 0
-121 118 -120 0
-118 115 -117 0
-115 111 -114 0
-111 107 -110 0
-107 103 -106 0
-103 99 -102 0
-99 95 -98 0
-95 91 -94 0
-91 87 -90 0
-87 83 -86 0
-83 79 -82 0
-79 75 -78 0
-75 71 -74 0
-71 67 -70 0
-67 63 -66 0
-63 59 -62 0
-59 55 -58 0
-55 51 -54 0
-51 47 -50 0
-47 43 -46 0
-43 39 -42 0
-39 35 -38 0
-35 31 -34 0
-31 27 -30 0
-27 23 -26 0
-23 19 -22 0
-19 15 -18 0
-15 11 -14 0
-11 7 -10 0
-7 -3 -6 0
1 -2 3 0
-1 2 3 0
4 -5 6 0
-4 5 6 0
8 -9 10 0
-8 9 10 0
12 13 14 0
-12 -13 14 0
-4 -8 13 0
-13 4 0
-13 8 0
16 -17 18 0
-16 17 18 0
20 -21 22 0
-20 21 22 0
24 25 26 0
-24 -25 26 0
-16 -20 25 0
-25 16 0
-25 20 0
28 29 30 0
-28 -29 30 0
-12 -24 29 0
-29 12 0
-29 24 0
32 33 34 0
-32 -33 34 0
-5 -8 33 0
-33 5 0
-33 8 0
36 37 38 0
-36 -37 38 0
-32 -24 37 0
-37 32 0
-37 24 0
40 41 42 0
-40 -41 42 0
-4 -9 41 0
-41 4 0
-41 9 0
44 45 46 0
-44 -45 46 0
-40 -24 45 0
-45 40 0
-45 24 0
48 49 50 0
-48 -49 50 0
-5 -9 49 0
-49 5 0
-49 9 0
52 53 54 0
-52 -53 54 0
-48 -24 53 0
-53 48 0
-53 24 0
56 57 58 0
-56 -57 58 0
-17 -20 57 0
-57 17 0
-57 20 0
60 61 62 0
-60 -61 62 0
-12 -56 61 0
-61 12 0
-61 56 0
64 65 66 0
-64 -65 66 0
-32 -56 65 0
-65 32 0
-65 56 0
68 69 70 0
-68 -69 70 0
-40 -56 69 0
-69 40 0
-69 56 0
72 73 74 0
-72 -73 74 0
-48 -56 73 0
-73 48 0
-73 56 0
76 77 78 0
-76 -77 78 0
-16 -21 77 0
-77 16 0
-77 21 0
80 81 82 0
-80 -81 82 0
-12 -76 81 0
-81 12 0
-81 76 0
84 85 86 0
-84 -85 86 0
-32 -76 85 0
-85 32 0
-85 76 0
88 89 90 0
-88 -89 90 0
-40 -76 89 0
-89 40 0
-89 76 0
92 93 94 0
-92 -93 94 0
-48 -76 93 0
-93 48 0
-93 76 0
96 97 98 0
-96 -97 98 0
-17 -21 97 0
-97 17 0
-97 21 0
100 101 102 0
-100 -101 102 0
-12 -96 101 0
-101 12 0
-101 96 0
104 105 106 0
-104 -105 106 0
-32 -96 105 0
-105 32 0
-105 96 0
108 109 110 0
-108 -109 110 0
-40 -96 109 0
-109 40 0
-109 96 0
112 113 114 0
-112 -113 114 0
-48 -96 113 0
-113 48 0
-113 96 0
116 -2 117 0
-116 2 117 0
119 -5 120 0
-119 5 120 0
122 -9 123 0
-122 9 123 0
125 126 127 0
-125 -126 127 0
-119 -122 126 0
-126 119 0
-126 122 0
129 -17 130 0
-129 17 130 0
132 -21 133 0
-132 21 133 0
135 136 137 0
-135 -136 137 0
-129 -132 136 0
-136 129 0
-136 132 0
139 140 141 0
-139 -140 141 0
-125 -135 140 0
-140 125 0
-140 135 0
143 144 145 0
-143 -144 145 0
-5 -122 144 0
-144 5 0
-144 122 0
147 148 149 0
-147 -148 149 0
-143 -135 148 0
-148 143 0
-148 135 0
151 152 153 0
-151 -152 153 0
-119 -9 152 0
-152 119 0
-152 9 0
155 156 157 0
-155 -156 157 0
-151 -135 156 0
-156 151 0
-156 135 0
159 160 161 0
-159 -160 161 0
-5 -9 160 0
-160 5 0
-160 9 0
163 164 165 0
-163 -164 165 0
-159 -135 164 0
-164 159 0
-164 135 0
167 168 169 0
-167 -168 169 0
-17 -132 168 0
-168 17 0
-168 132 0
171 172 173 0
-171 -172 173 0
-125 -167 172 0
-172 125 0
-172 167 0
175 176 177 0
-175 -176 177 0
-143 -167 176 0
-176 143 0
-176 167 0
179 180 181 0
-179 -180 181 0
-151 -167 180 0
-180 151 0
-180 167 0
183 184 185 0
-183 -184 185 0
-159 -167 184 0
-184 159 0
-184 167 0
187 188 189 0
-187 -188 189 0
-129 -21 188 0
-188 129 0
-188 21 0
191 192 193 0
-191 -192 193 0
-125 -187 192 0
-192 125 0
-192 187 0
195 196 197 0
-195 -196 197 0
-143 -187 196 0
-196 143 0
-196 187 0
199 200 201 0
-199 -200 201 0
-151 -187 200 0
-200 151 0
-200 187 0
203 204 205 0
-203 -204 205 0
-159 -187 204 0
-204 159 0
-204 187 0
207 208 209 0
-207 -208 209 0
-17 -21 208 0
-208 17 0
-208 21 0
211 212 213 0
-211 -212 213 0
-125 -207 212 0
-212 125 0
-212 207 0
215 216 217 0
-215 -216 217 0
-143 -207 216 0
-216 143 0
-216 207 0
219 220 221 0
-219 -220 221 0
-151 -207 220 0
-220 151 0
-220 207 0
223 224 225 0
-223 -224 225 0
-159 -207 224 0
-224 159 0
-224 207 0
227 187 228 0
-227 -187 228 0
230 119 231 0
-230 -119 231 0
-454 -357 453 0
-454 357 -453 0
-357 295 356 0
-295 263 294 0
-263 247 262 0
-247 239 246 0
-239 235 238 0
-235 234 0
-235 139 0
-234 116 0
-234 233 0
-238 237 0
-238 147 0
-237 116 0
-237 236 0
-246 242 245 0
-242 241 0
-242 155 0
-241 116 0
-241 240 0
-245 244 0
-245 163 0
-244 116 0
-244 243 0
-262 254 261 0
-254 250 253 0
-250 249 0
-250 171 0
-249 116 0
-249 248 0
-253 252 0
-253 175 0
-252 116 0
-252 251 0
-261 257 260 0
-257 256 0
-257 179 0
-256 116 0
-256 255 0
-260 259 0
-260 183 0
-259 116 0
-259 258 0
-294 278 293 0
-278 270 277 0
-270 266 269 0
-266 265 0
-266 191 0
-265 116 0
-265 264 0
-269 268 0
-269 195 0
-268 116 0
-268 267 0
-277 273 276 0
-273 272 0
-273 199 0
-272 116 0
-272 271 0
-276 275 0
-276 203 0
-275 116 0
-275 274 0
-293 285 292 0
-285 281 284 0
-281 280 0
-281 211 0
-280 116 0
-280 279 0
-284 283 0
-284 215 0
-283 116 0
-283 282 0
-292 288 291 0
-288 287 0
-288 219 0
-287 116 0
-287 286 0
-291 290 0
-291 223 0
-290 116 0
-290 289 0
-356 326 355 0
-326 310 325 0
-310 302 309 0
-302 298 301 0
-298 297 0
-298 139 0
-297 2 0
-297 296 0
-301 300 0
-301 147 0
-300 2 0
-300 299 0
-309 305 308 0
-305 304 0
-305 155 0
-304 2 0
-304 303 0
-308 307 0
-308 163 0
-307 2 0
-307 306 0
-325 317 324 0
-317 313 316 0
-313 312 0
-313 171 0
-312 2 0
-312 311 0
-316 315 0
-316 175 0
-315 2 0
-315 314 0
-324 320 323 0
-320 319 0
-320 179 0
-319 2 0
-319 318 0
-323 322 0
-323 183 0
-322 2 0
-322 321 0
-355 339 354 0
-339 333 338 0
-333 329 332 0
-329 328 0
-329 191 0
-328 2 0
-328 327 0
-332 331 0
-332 195 0
-331 2 0
-331 330 0
-338 334 337 0
-337 336 0
-337 203 0
-336 2 0
-336 335 0
-354 346 353 0
-346 -342 345 0
-346 342 -345 0
-342 341 0
-342 211 0
-341 2 0
-341 340 0
-345 344 0
-345 215 0
-344 2 0
-344 343 0
-341 -211 342 0
-2 -340 341 0
-344 -215 345 0
-2 -343 344 0
-353 349 352 0
-349 348 0
-349 219 0
-348 2 0
-348 347 0
-352 351 0
-352 223 0
-351 2 0
-351 350 0
-453 404 452 0
-404 380 403 0
-380 368 379 0
-368 362 367 0
-362 359 361 0
-359 358 0
-359 28 0
-358 1 0
-358 233 0
-361 360 0
-361 36 0
-360 1 0
-360 236 0
-367 364 366 0
-364 363 0
-364 44 0
-363 1 0
-363 240 0
-366 365 0
-366 52 0
-365 1 0
-365 243 0
-379 373 378 0
-373 370 372 0
-370 369 0
-370 60 0
-369 1 0
-369 248 0
-372 371 0
-372 64 0
-371 1 0
-371 251 0
-378 375 377 0
-375 374 0
-375 68 0
-374 1 0
-374 255 0
-377 376 0
-377 72 0
-376 1 0
-376 258 0
-403 391 402 0
-391 385 390 0
-385 382 384 0
-382 381 0
-382 80 0
-381 1 0
-381 264 0
-384 383 0
-384 84 0
-383 1 0
-383 267 0
-390 387 389 0
-387 386 0
-387 88 0
-386 1 0
-386 271 0
-389 388 0
-389 92 0
-388 1 0
-388 274 0
-402 396 401 0
-396 393 395 0
-393 392 0
-393 100 0
-392 1 0
-392 279 0
-395 394 0
-395 104 0
-394 1 0
-394 282 0
-401 398 400 0
-398 397 0
-398 108 0
-397 1 0
-397 286 0
-400 399 0
-400 112 0
-399 1 0
-399 289 0
-452 427 451 0
-427 415 426 0
-415 409 414 0
-409 406 408 0
-406 405 0
-406 28 0
-405 2 0
-405 296 0
-408 407 0
-408 36 0
-407 2 0
-407 299 0
-414 411 413 0
-411 410 0
-411 44 0
-410 2 0
-410 303 0
-413 412 0
-413 52 0
-412 2 0
-412 306 0
-426 420 425 0
-420 417 419 0
-417 416 0
-417 60 0
-416 2 0
-416 311 0
-419 418 0
-419 64 0
-418 2 0
-418 314 0
-425 422 424 0
-422 421 0
-422 68 0
-421 2 0
-421 318 0
-424 423 0
-424 72 0
-423 2 0
-423 321 0
-451 439 450 0
-439 432 438 0
-432 429 431 0
-429 428 0
-429 80 0
-428 2 0
-428 327 0
-431 430 0
-431 84 0
-430 2 0
-430 330 0
-438 435 437 0
-435 434 0
-435 88 0
-434 2 0
-434 433 0
-437 436 0
-437 92 0
-436 2 0
-436 335 0
-450 444 449 0
-444 441 443 0
-441 440 0
-441 100 0
-440 2 0
-440 340 0
-443 442 0
-443 104 0
-442 2 0
-442 343 0
-449 446 448 0
-446 445 0
-446 108 0
-445 2 0
-445 347 0
-448 447 0
-448 112 0
-447 2 0
-447 350 0
-295 356 357 0
295 -356 357 0
-295 -356 357 0
-263 294 295 0
263 -294 295 0
-263 -294 295 0
-247 262 263 0
247 -262 263 0
-247 -262 263 0
-239 246 247 0
239 -246 247 0
-239 -246 247 0
-235 238 239 0
235 -238 239 0
-235 -238 239 0
-234 -139 235 0
-116 -233 234 0
-237 -147 238 0
-116 -236 237 0
-242 245 246 0
242 -245 246 0
-242 -245 246 0
-241 -155 242 0
-116 -240 241 0
-244 -163 245 0
-116 -243 244 0
-254 261 262 0
254 -261 262 0
-254 -261 262 0
-250 253 254 0
250 -253 254 0
-250 -253 254 0
-249 -171 250 0
-116 -248 249 0
-252 -175 253 0
-116 -251 252 0
-257 260 261 0
257 -260 261 0
-257 -260 261 0
-256 -179 257 0
-116 -255 256 0
-259 -183 260 0
-116 -258 259 0
-278 293 294 0
278 -293 294 0
-278 -293 294 0
-270 277 278 0
270 -277 278 0
-270 -277 278 0
-266 269 270 0
266 -269 270 0
-266 -269 270 0
-265 -191 266 0
-116 -264 265 0
-268 -195 269 0
-116 -267 268 0
-273 276 277 0
273 -276 277 0
-273 -276 277 0
-272 -199 273 0
-116 -271 272 0
-275 -203 276 0
-116 -274 275 0
-285 292 293 0
285 -292 293 0
-285 -292 293 0
-281 284 285 0
281 -284 285 0
-281 -284 285 0
-280 -211 281 0
-116 -279 280 0
-283 -215 284 0
-116 -282 283 0
-288 291 292 0
288 -291 292 0
-288 -291 292 0
-287 -219 288 0
-116 -286 287 0
-290 -223 291 0
-116 -289 290 0
-326 355 356 0
326 -355 356 0
-326 -355 356 0
-310 325 326 0
310 -325 326 0
-310 -325 326 0
-302 309 310 0
302 -309 310 0
-302 -309 310 0
-298 301 302 0
298 -301 302 0
-298 -301 302 0
-297 -139 298 0
-2 -296 297 0
-300 -147 301 0
-2 -299 300 0
-305 308 309 0
305 -308 309 0
-305 -308 309 0
-304 -155 305 0
-2 -303 304 0
-307 -163 308 0
-2 -306 307 0
-317 324 325 0
317 -324 325 0
-317 -324 325 0
-313 316 317 0
313 -316 317 0
-313 -316 317 0
-312 -171 313 0
-2 -311 312 0
-315 -175 316 0
-2 -314 315 0
-320 323 324 0
320 -323 324 0
-320 -323 324 0
-319 -179 320 0
-2 -318 319 0
-322 -183 323 0
-2 -321 322 0
-339 354 355 0
339 -354 355 0
-339 -354 355 0
-333 338 339 0
333 -338 339 0
-333 -338 339 0
-329 332 333 0
329 -332 333 0
-329 -332 333 0
-328 -191 329 0
-2 -327 328 0
-331 -195 332 0
-2 -330 331 0
-334 337 338 0
334 -337 338 0
-334 -337 338 0
-336 -203 337 0
-2 -335 336 0
-346 353 354 0
346 -353 354 0
-346 -353 354 0
342 345 346 0
-342 -345 346 0
-341 -211 342 0
-2 -340 341 0
-344 -215 345 0
-2 -343 344 0
-342 341 0
-342 211 0
-341 2 0
-341 340 0
-345 344 0
-345 215 0
-344 2 0
-344 343 0
-349 352 353 0
349 -352 353 0
-349 -352 353 0
-348 -219 349 0
-2 -347 348 0
-351 -223 352 0
-2 -350 351 0
-404 452 453 0
404 -452 453 0
-404 -452 453 0
-380 403 404 0
380 -403 404 0
-380 -403 404 0
-368 379 380 0
368 -379 380 0
-368 -379 380 0
-362 367 368 0
362 -367 368 0
-362 -367 368 0
-359 361 362 0
359 -361 362 0
-359 -361 362 0
-358 -28 359 0
-1 -233 358 0
-360 -36 361 0
-1 -236 360 0
-364 366 367 0
364 -366 367 0
-364 -366 367 0
-363 -44 364 0
-1 -240 363 0
-365 -52 366 0
-1 -243 365 0
-373 378 379 0
373 -378 379 0
-373 -378 379 0
-370 372 373 0
370 -372 373 0
-370 -372 373 0
-369 -60 370 0
-1 -248 369 0
-371 -64 372 0
-1 -251 371 0
-375 377 378 0
375 -377 378 0
-375 -377 378 0
-374 -68 375 0
-1 -255 374 0
-376 -72 377 0
-1 -258 376 0
-391 402 403 0
391 -402 403 0
-391 -402 403 0
-385 390 391 0
385 -390 391 0
-385 -390 391 0
-382 384 385 0
382 -384 385 0
-382 -384 385 0
-381 -80 382 0
-1 -264 381 0
-383 -84 384 0
-1 -267 383 0
-387 389 390 0
387 -389 390 0
-387 -389 390 0
-386 -88 387 0
-1 -271 386 0
-388 -92 389 0
-1 -274 388 0
-396 401 402 0
396 -401 402 0
-396 -401 402 0
-393 395 396 0
393 -395 396 0
-393 -395 396 0
-392 -100 393 0
-1 -279 392 0
-394 -104 395 0
-1 -282 394 0
-398 400 401 0
398 -400 401 0
-398 -400 401 0
-397 -108 398 0
-1 -286 397 0
-399 -112 400 0
-1 -289 399 0
-427 451 452 0
427 -451 452 0
-427 -451 452 0
-415 426 427 0
415 -426 427 0
-415 -426 427 0
-409 414 415 0
409 -414 415 0
-409 -414 415 0
-406 408 409 0
406 -408 409 0
-406 -408 409 0
-405 -28 406 0
-2 -296 405 0
-407 -36 408 0
-2 -299 407 0
-411 413 414 0
411 -413 414 0
-411 -413 414 0
-410 -44 411 0
-2 -303 410 0
-412 -52 413 0
-2 -306 412 0
-420 425 426 0
420 -425 426 0
-420 -425 426 0
-417 419 420 0
417 -419 420 0
-417 -419 420 0
-416 -60 417 0
-2 -311 416 0
-418 -64 419 0
-2 -314 418 0
-422 424 425 0
422 -424 425 0
-422 -424 425 0
-421 -68 422 0
-2 -318 421 0
-423 -72 424 0
-2 -321 423 0
-439 450 451 0
439 -450 451 0
-439 -450 451 0
-432 438 439 0
432 -438 439 0
-432 -438 439 0
-429 431 432 0
429 -431 432 0
-429 -431 432 0
-428 -80 429 0
-2 -327 428 0
-430 -84 431 0
-2 -330 430 0
-435 437 438 0
435 -437 438 0
-435 -437 438 0
-434 -88 435 0
-2 -433 434 0
-436 -92 437 0
-2 -335 436 0
-444 449 450 0
444 -449 450 0
-444 -449 450 0
-441 443 444 0
441 -443 444 0
-441 -443 444 0
-440 -100 441 0
-2 -340 440 0
-442 -104 443 0
-2 -343 442 0
-446 448 449 0
446 -448 449 0
-446 -448 449 0
-445 -108 446 0
-2 -347 445 0
-447 -112 448 0
-2 -350 447 0
1422 0
4 -1423 0
8 -1423 0
-4 -8 1423 0
20 -1424 0
16 -1424 0
-20 -16 1424 0
24 -1425 0
12 -1425 0
-24 -12 1425 0
8 -1426 0
5 -1426 0
-8 -5 1426 0
32 -1427 0
24 -1427 0
-32 -24 1427 0
4 -1428 0
9 -1428 0
-4 -9 1428 0
40 -1429 0
24 -1429 0
-40 -24 1429 0
5 -1430 0
9 -1430 0
-5 -9 1430 0
48 -1431 0
24 -1431 0
-48 -24 1431 0
20 -1432 0
17 -1432 0
-20 -17 1432 0
56 -1433 0
12 -1433 0
-56 -12 1433 0
56 -1434 0
32 -1434 0
-56 -32 1434 0
56 -1435 0
40 -1435 0
-56 -40 1435 0
56 -1436 0
48 -1436 0
-56 -48 1436 0
16 -1437 0
21 -1437 0
-16 -21 1437 0
12 -1438 0
76 -1438 0
-12 -76 1438 0
32 -1439 0
76 -1439 0
-32 -76 1439 0
40 -1440 0
76 -1440 0
-40 -76 1440 0
48 -1441 0
76 -1441 0
-48 -76 1441 0
21 -1442 0
17 -1442 0
-21 -17 1442 0
12 -1443 0
96 -1443 0
-12 -96 1443 0
32 -1444 0
96 -1444 0
-32 -96 1444 0
40 -1445 0
96 -1445 0
-40 -96 1445 0
48 -1446 0
96 -1446 0
-48 -96 1446 0
122 -1447 0
119 -1447 0
-122 -119 1447 0
129 -1448 0
132 -1448 0
-129 -132 1448 0
135 -1449 0
125 -1449 0
-135 -125 1449 0
5 -1450 0
122 -1450 0
-5 -122 1450 0
135 -1451 0
143 -1451 0
-135 -143 1451 0
9 -1452 0
119 -1452 0
-9 -119 1452 0
151 -1453 0
135 -1453 0
-151 -135 1453 0
159 -1454 0
135 -1454 0
-159 -135 1454 0
17 -1455 0
132 -1455 0
-17 -132 1455 0
167 -1456 0
125 -1456 0
-167 -125 1456 0
167 -1457 0
143 -1457 0
-167 -143 1457 0
167 -1458 0
151 -1458 0
-167 -151 1458 0
167 -1459 0
159 -1459 0
-167 -159 1459 0
21 -1460 0
129 -1460 0
-21 -129 1460 0
187 -1461 0
125 -1461 0
-187 -125 1461 0
187 -1462 0
143 -1462 0
-187 -143 1462 0
151 -1463 0
187 -1463 0
-151 -187 1463 0
159 -1464 0
187 -1464 0
-159 -187 1464 0
207 -1465 0
125 -1465 0
-207 -125 1465 0
207 -1466 0
143 -1466 0
-207 -143 1466 0
151 -1467 0
207 -1467 0
-151 -207 1467 0
159 -1468 0
207 -1468 0
-159 -207 1468 0
233 -1469 0
116 -1469 0
-233 -116 1469 0
139 -1470 0
234 -1470 0
-139 -234 1470 0
236 -1471 0
116 -1471 0
-236 -116 1471 0
147 -1472 0
237 -1472 0
-147 -237 1472 0
-235 -1473 0
-238 -1473 0
235 238 1473 0
240 -1474 0
116 -1474 0
-240 -116 1474 0
155 -1475 0
241 -1475 0
-155 -241 1475 0
243 -1476 0
116 -1476 0
-243 -116 1476 0
163 -1477 0
244 -1477 0
-163 -244 1477 0
-242 -1478 0
-245 -1478 0
242 245 1478 0
-239 -1479 0
1478 -1479 0
239 -1478 1479 0
248 -1480 0
116 -1480 0
-248 -116 1480 0
171 -1481 0
249 -1481 0
-171 -249 1481 0
251 -1482 0
116 -1482 0
-251 -116 1482 0
175 -1483 0
252 -1483 0
-175 -252 1483 0
-250 -1484 0
-253 -1484 0
250 253 1484 0
255 -1485 0
116 -1485 0
-255 -116 1485 0
179 -1486 0
256 -1486 0
-179 -256 1486 0
258 -1487 0
116 -1487 0
-258 -116 1487 0
183 -1488 0
259 -1488 0
-183 -259 1488 0
-257 -1489 0
-260 -1489 0
257 260 1489 0
-254 -1490 0
1489 -1490 0
254 -1489 1490 0
-247 -1491 0
-254 -1491 0
247 254 1491 0
-261 -1492 0
1491 -1492 0
261 -1491 1492 0
264 -1493 0
116 -1493 0
-264 -116 1493 0
191 -1494 0
265 -1494 0
-191 -265 1494 0
267 -1495 0
116 -1495 0
-267 -116 1495 0
195 -1496 0
268 -1496 0
-195 -268 1496 0
-266 -1497 0
-269 -1497 0
266 269 1497 0
271 -1498 0
116 -1498 0
-271 -116 1498 0
199 -1499 0
272 -1499 0
-199 -272 1499 0
274 -1500 0
116 -1500 0
-274 -116 1500 0
203 -1501 0
275 -1501 0
-203 -275 1501 0
-273 -1502 0
-276 -1502 0
273 276 1502 0
-270 -1503 0
1502 -1503 0
270 -1502 1503 0
279 -1504 0
116 -1504 0
-279 -116 1504 0
211 -1505 0
280 -1505 0
-211 -280 1505 0
282 -1506 0
116 -1506 0
-282 -116 1506 0
215 -1507 0
283 -1507 0
-215 -283 1507 0
-281 -1508 0
-284 -1508 0
281 284 1508 0
286 -1509 0
116 -1509 0
-286 -116 1509 0
219 -1510 0
287 -1510 0
-219 -287 1510 0
289 -1511 0
116 -1511 0
-289 -116 1511 0
223 -1512 0
290 -1512 0
-223 -290 1512 0
-288 -1513 0
-291 -1513 0
288 291 1513 0
-285 -1514 0
-292 -1514 0
285 292 1514 0
-278 -1515 0
-293 -1515 0
278 293 1515 0
-263 -1516 0
1515 -1516 0
263 -1515 1516 0
296 -1517 0
2 -1517 0
-296 -2 1517 0
139 -1518 0
297 -1518 0
-139 -297 1518 0
299 -1519 0
2 -1519 0
-299 -2 1519 0
147 -1520 0
300 -1520 0
-147 -300 1520 0
-298 -1521 0
-301 -1521 0
298 301 1521 0
303 -1522 0
2 -1522 0
-303 -2 1522 0
155 -1523 0
304 -1523 0
-155 -304 1523 0
306 -1524 0
2 -1524 0
-306 -2 1524 0
163 -1525 0
307 -1525 0
-163 -307 1525 0
-305 -1526 0
-308 -1526 0
305 308 1526 0
-302 -1527 0
-309 -1527 0
302 309 1527 0
311 -1528 0
2 -1528 0
-311 -2 1528 0
171 -1529 0
312 -1529 0
-171 -312 1529 0
314 -1530 0
2 -1530 0
-314 -2 1530 0
175 -1531 0
315 -1531 0
-175 -315 1531 0
-313 -1532 0
-316 -1532 0
313 316 1532 0
318 -1533 0
2 -1533 0
-318 -2 1533 0
179 -1534 0
319 -1534 0
-179 -319 1534 0
321 -1535 0
2 -1535 0
-321 -2 1535 0
183 -1536 0
322 -1536 0
-183 -322 1536 0
-320 -1537 0
-323 -1537 0
320 323 1537 0
-317 -1538 0
-324 -1538 0
317 324 1538 0
-310 -1539 0
-325 -1539 0
310 325 1539 0
327 -1540 0
2 -1540 0
-327 -2 1540 0
191 -1541 0
328 -1541 0
-191 -328 1541 0
330 -1542 0
2 -1542 0
-330 -2 1542 0
195 -1543 0
331 -1543 0
-195 -331 1543 0
-329 -1544 0
-332 -1544 0
329 332 1544 0
335 -1545 0
2 -1545 0
-335 -2 1545 0
203 -1546 0
336 -1546 0
-203 -336 1546 0
-333 -1547 0
-338 -1547 0
333 338 1547 0
340 -1548 0
2 -1548 0
-340 -2 1548 0
211 -1549 0
341 -1549 0
-211 -341 1549 0
343 -1550 0
2 -1550 0
-343 -2 1550 0
215 -1551 0
344 -1551 0
-215 -344 1551 0
342 -1552 0
-345 -1552 0
-342 345 1552 0
-342 -1553 0
345 -1553 0
342 -345 1553 0
-1552 -1554 0
-1553 -1554 0
1552 1553 1554 0
347 -1555 0
2 -1555 0
-347 -2 1555 0
219 -1556 0
348 -1556 0
-219 -348 1556 0
350 -1557 0
2 -1557 0
-350 -2 1557 0
223 -1558 0
351 -1558 0
-223 -351 1558 0
-349 -1559 0
-352 -1559 0
349 352 1559 0
-346 -1560 0
-353 -1560 0
346 353 1560 0
-339 -1561 0
1560 -1561 0
339 -1560 1561 0
-326 -1562 0
-355 -1562 0
326 355 1562 0
-295 -1563 0
1562 -1563 0
295 -1562 1563 0
1 -1564 0
233 -1564 0
-1 -233 1564 0
28 -1565 0
358 -1565 0
-28 -358 1565 0
1 -1566 0
236 -1566 0
-1 -236 1566 0
36 -1567 0
360 -1567 0
-36 -360 1567 0
-359 -1568 0
-361 -1568 0
359 361 1568 0
1 -1569 0
240 -1569 0
-1 -240 1569 0
44 -1570 0
363 -1570 0
-44 -363 1570 0
1 -1571 0
243 -1571 0
-1 -243 1571 0
52 -1572 0
365 -1572 0
-52 -365 1572 0
-364 -1573 0
-366 -1573 0
364 366 1573 0
-362 -1574 0
-367 -1574 0
362 367 1574 0
1 -1575 0
248 -1575 0
-1 -248 1575 0
60 -1576 0
369 -1576 0
-60 -369 1576 0
1 -1577 0
251 -1577 0
-1 -251 1577 0
64 -1578 0
371 -1578 0
-64 -371 1578 0
-370 -1579 0
-372 -1579 0
370 372 1579 0
1 -1580 0
255 -1580 0
-1 -255 1580 0
68 -1581 0
374 -1581 0
-68 -374 1581 0
1 -1582 0
258 -1582 0
-1 -258 1582 0
72 -1583 0
376 -1583 0
-72 -376 1583 0
-375 -1584 0
-377 -1584 0
375 377 1584 0
-373 -1585 0
-378 -1585 0
373 378 1585 0
-368 -1586 0
-379 -1586 0
368 379 1586 0
1 -1587 0
264 -1587 0
-1 -264 1587 0
80 -1588 0
381 -1588 0
-80 -381 1588 0
267 -1589 0
1 -1589 0
-267 -1 1589 0
84 -1590 0
383 -1590 0
-84 -383 1590 0
-382 -1591 0
-384 -1591 0
382 384 1591 0
271 -1592 0
1 -1592 0
-271 -1 1592 0
88 -1593 0
386 -1593 0
-88 -386 1593 0
274 -1594 0
1 -1594 0
-274 -1 1594 0
92 -1595 0
388 -1595 0
-92 -388 1595 0
-387 -1596 0
-389 -1596 0
387 389 1596 0
-385 -1597 0
-390 -1597 0
385 390 1597 0
279 -1598 0
1 -1598 0
-279 -1 1598 0
100 -1599 0
392 -1599 0
-100 -392 1599 0
282 -1600 0
1 -1600 0
-282 -1 1600 0
104 -1601 0
394 -1601 0
-104 -394 1601 0
-393 -1602 0
-395 -1602 0
393 395 1602 0
286 -1603 0
1 -1603 0
-286 -1 1603 0
108 -1604 0
397 -1604 0
-108 -397 1604 0
289 -1605 0
1 -1605 0
-289 -1 1605 0
112 -1606 0
399 -1606 0
-112 -399 1606 0
-398 -1607 0
-400 -1607 0
398 400 1607 0
-396 -1608 0
-401 -1608 0
396 401 1608 0
-391 -1609 0
-402 -1609 0
391 402 1609 0
-380 -1610 0
1609 -1610 0
380 -1609 1610 0
28 -1611 0
405 -1611 0
-28 -405 1611 0
36 -1612 0
407 -1612 0
-36 -407 1612 0
-406 -1613 0
-408 -1613 0
406 408 1613 0
44 -1614 0
410 -1614 0
-44 -410 1614 0
52 -1615 0
412 -1615 0
-52 -412 1615 0
-411 -1616 0
-413 -1616 0
411 413 1616 0
-409 -1617 0
-414 -1617 0
409 414 1617 0
60 -1618 0
416 -1618 0
-60 -416 1618 0
64 -1619 0
418 -1619 0
-64 -418 1619 0
-417 -1620 0
-419 -1620 0
417 419 1620 0
68 -1621 0
421 -1621 0
-68 -421 1621 0
72 -1622 0
423 -1622 0
-72 -423 1622 0
-422 -1623 0
-424 -1623 0
422 424 1623 0
-420 -1624 0
-425 -1624 0
420 425 1624 0
-415 -1625 0
1624 -1625 0
415 -1624 1625 0
80 -1626 0
428 -1626 0
-80 -428 1626 0
84 -1627 0
430 -1627 0
-84 -430 1627 0
-429 -1628 0
-431 -1628 0
429 431 1628 0
433 -1629 0
2 -1629 0
-433 -2 1629 0
88 -1630 0
434 -1630 0
-88 -434 1630 0
92 -1631 0
436 -1631 0
-92 -436 1631 0
-435 -1632 0
-437 -1632 0
435 437 1632 0
-432 -1633 0
-438 -1633 0
432 438 1633 0
100 -1634 0
440 -1634 0
-100 -440 1634 0
104 -1635 0
442 -1635 0
-104 -442 1635 0
-441 -1636 0
-443 -1636 0
441 443 1636 0
108 -1637 0
445 -1637 0
-108 -445 1637 0
112 -1638 0
447 -1638 0
-112 -447 1638 0
-446 -1639 0
-448 -1639 0
446 448 1639 0
-444 -1640 0
-449 -1640 0
444 449 1640 0
-439 -1641 0
-450 -1641 0
439 450 1641 0
-427 -1642 0
-451 -1642 0
427 451 1642 0
-404 -1643 0
1642 -1643 0
404 -1642 1643 0
